========================================================== 
File name: C:\DEGR\assets\definitions\MSRCPSP_Gen\100_40_512_5_A.def
Creation date: Wed May 03 10:43:57 CEST 2023
Website: http://imopse.ii.pwr.edu.pl/ 
Reference: 
Myszkowski P. B., Skowronski M. E., Olech L., Oslizlo K., 
Hybrid Ant Colony Optimization in solving Multi-Skill Resource-Constrained Project Scheduling Problem, 
Soft Computing, DOI: DOI 10.1007/s00500-014-1455-x 
========================================================== 
General characteristics: 
Tasks: 100
Resources: 40
Precedence relations: 481
Number of skill types: 5
========================================================== 
ResourceID 	 Salary 	 Skills 
1	 	 	15.0	 	 Q2: 2 	  Q1: 2 	  Q4: 0 	  Q3: 0 	 
2	 	 	75.2	 	 Q0: 3 	  Q2: 2 	  Q4: 3 	 
3	 	 	27.3	 	 Q3: 3 	  Q0: 3 	  Q1: 3 	  Q2: 1 	 
4	 	 	94.1	 	 Q3: 0 	  Q2: 1 	  Q0: 2 	 
5	 	 	47.5	 	 Q1: 0 	  Q0: 3 	 
6	 	 	15.0	 	 Q2: 3 	 
7	 	 	47.8	 	 Q0: 2 	 
8	 	 	24.8	 	 Q1: 2 	 
9	 	 	22.6	 	 Q0: 1 	 
10	 	 	42.5	 	 Q2: 0 	  Q4: 1 	  Q1: 3 	 
11	 	 	64.8	 	 Q3: 1 	 
12	 	 	48.6	 	 Q3: 2 	 
13	 	 	25.9	 	 Q3: 3 	  Q4: 3 	 
14	 	 	60.2	 	 Q1: 2 	  Q0: 2 	  Q3: 0 	  Q2: 0 	 
15	 	 	35.2	 	 Q1: 3 	  Q4: 2 	 
16	 	 	82.6	 	 Q4: 1 	  Q3: 3 	  Q0: 1 	 
17	 	 	34.8	 	 Q0: 2 	  Q1: 3 	  Q3: 2 	 
18	 	 	36.8	 	 Q4: 0 	  Q0: 0 	  Q1: 0 	 
19	 	 	63.8	 	 Q3: 3 	  Q2: 0 	 
20	 	 	57.2	 	 Q3: 2 	  Q4: 2 	  Q0: 0 	 
21	 	 	71.6	 	 Q2: 3 	 
22	 	 	67.6	 	 Q2: 1 	  Q1: 0 	  Q0: 1 	  Q4: 3 	 
23	 	 	81.9	 	 Q3: 3 	  Q4: 1 	 
24	 	 	17.3	 	 Q0: 1 	 
25	 	 	82.2	 	 Q4: 2 	  Q1: 0 	  Q2: 0 	  Q0: 1 	 
26	 	 	66.4	 	 Q4: 1 	  Q1: 1 	  Q3: 2 	 
27	 	 	36.2	 	 Q1: 3 	  Q0: 1 	 
28	 	 	68.0	 	 Q4: 3 	  Q1: 1 	  Q2: 2 	 
29	 	 	83.0	 	 Q3: 2 	  Q2: 3 	  Q0: 3 	 
30	 	 	33.5	 	 Q3: 0 	  Q2: 3 	 
31	 	 	81.9	 	 Q3: 3 	  Q0: 1 	 
32	 	 	69.5	 	 Q3: 2 	  Q0: 0 	  Q4: 1 	  Q2: 0 	 
33	 	 	69.6	 	 Q4: 2 	  Q0: 0 	  Q1: 2 	 
34	 	 	65.3	 	 Q1: 0 	  Q0: 3 	  Q3: 3 	 
35	 	 	50.6	 	 Q0: 2 	  Q1: 3 	 
36	 	 	50.8	 	 Q0: 2 	 
37	 	 	86.4	 	 Q1: 1 	  Q2: 1 	 
38	 	 	29.2	 	 Q3: 0 	 
39	 	 	32.1	 	 Q0: 2 	 
40	 	 	37.4	 	 Q4: 0 	  Q1: 2 	  Q2: 1 	  Q0: 3 	 
========================================================== 
TaskID 	 Duration 	 Skill 	 Predecessor IDs 
1	13	Q1:	3
2	11	Q3:	3
3	15	Q2:	3
4	15	Q3:	1
5	39	Q0:	2	3
6	17	Q0:	1
7	37	Q0:	3
8	13	Q0:	3	5
9	9	Q4:	2	6
10	19	Q3:	1	5
11	24	Q1:	3
12	23	Q0:	2	7	4
13	18	Q1:	3	3	10
14	15	Q1:	0	6	11	12
15	11	Q0:	2	13
16	35	Q4:	0	5
17	31	Q2:	1	7	11
18	13	Q1:	0	5
19	24	Q2:	0	2	14
20	40	Q2:	0	17	19
21	19	Q0:	3	8	15	11
22	28	Q1:	0	12
23	26	Q4:	1	13	1	7
24	14	Q1:	1	4	14	10	7	15
25	24	Q2:	3	24	17	18
26	38	Q1:	0	11
27	23	Q4:	1	15	21	10
28	25	Q3:	2	19	27
29	26	Q4:	1	5	8	22
30	33	Q3:	3	15	24	27
31	25	Q2:	1	11	18	12
32	25	Q0:	3	1	17	28	22
33	32	Q4:	1	13	17	18	22	28
34	28	Q0:	2	10	13
35	35	Q1:	2	20	25	11
36	23	Q2:	3	28	2	33	23
37	26	Q2:	0	32
38	39	Q0:	3	22
39	27	Q3:	0	7	5	10	22	34	23
40	11	Q4:	2	39	12	26
41	22	Q2:	0	17	13	29	4	27
42	34	Q4:	1	26	10	39	22	37
43	11	Q3:	0	14
44	17	Q3:	2	36	31	11
45	18	Q0:	3	25	17
46	18	Q0:	3	12	6	19	35	13	33	44
47	13	Q1:	2	8	41	46	4	20
48	9	Q4:	2	33	19	20	32
49	10	Q0:	3	36	11	43	28	42	44
50	29	Q2:	0	27	20	17	1	25
51	10	Q1:	2	41	34	49	14	26
52	9	Q2:	2	39	12	18	5	44	27
53	19	Q1:	1	36	11	48	10	45	23	6
54	9	Q0:	0	28	24	33	11
55	25	Q3:	2	52	15	19	3	25	1	10
56	22	Q0:	3	26	4	44	3	42
57	24	Q1:	3	50	14	4	10	30
58	17	Q4:	2	38	34	48	6	13	55
59	10	Q3:	1	23	46	57	55	37
60	17	Q0:	3	56	59	27
61	11	Q3:	3	51	37	44	48	54
62	13	Q2:	1	25	42	46	51	55
63	32	Q0:	1	20	33	56	38	30	48	53	50	43	32	24
64	15	Q0:	3	61	33	43	57	58	53	27	12
65	33	Q0:	1	46	39	28
66	24	Q3:	3	46	65	36	23	34	60	25	8	3
67	33	Q2:	0	46	39	65	26	64	17	66
68	27	Q2:	3	5	67	13	9	26	61
69	30	Q4:	1	66	44	58	25	40	18	34	47	37
70	14	Q3:	0	29	26	33	14
71	27	Q4:	2	37	25	9	56	51	50
72	38	Q1:	1	56	32	59	15	6	63	29	68
73	22	Q4:	0	34	67	20	32	28	69	42	63
74	37	Q3:	3	59	11	52	46	36	63	61	41	40
75	39	Q4:	1	74	49	60	18	68	47	2
76	36	Q4:	3	11	62	59	1	16	37
77	34	Q0:	1	31	11	55	34	22	44
78	35	Q2:	2	50	32	58	16	26
79	31	Q2:	2	27	42	18	5	41	38	53	46
80	35	Q4:	0	30	7	22	36	76	8	62
81	40	Q1:	2	24	27	52	57	69	21	35	61
82	27	Q0:	3	53	49	17	32	15	3	56
83	19	Q2:	3	80	19	7	16	50	39	10	2
84	29	Q4:	1	67	22	51	76	48	77	19	75
85	27	Q4:	0	2	83	48	39	59	57
86	19	Q2:	2	26	36	46	43	66	58	11	1
87	22	Q0:	2	24	78	26	42	63	37	15	9
88	21	Q3:	2	64	48	15	14	21	80	37	16	53	56	35	18
89	38	Q3:	1	45	74	64	60	43	8	7	61	83	82	50	57
90	22	Q0:	3	37	33	10	18	83	30	53	26	4	74
91	36	Q1:	1	90	63	48	20	74	25	10
92	34	Q4:	0	7	33	80	75	30
93	31	Q4:	1	12	56	34	70	79	58	13	87	32	68	55
94	22	Q2:	2	4	43	84	5	47	25	46	27
95	32	Q4:	3	35	49	19	39	86	27	44	26
96	32	Q4:	2	24	41	89	70	17	90	53	32
97	40	Q3:	0	69	43	59	27	89	25	80	29	4	72	23	52	14
98	11	Q1:	3	22	19	57	93	79	55
99	14	Q2:	3	62	85	36	87	33	18	32	70	58
100	25	Q3:	0	66	52	99	22	17	30	24
========================================================== 